WARNING: for repeatability, setting FPU to use double precision
============================[ Problem Statistics ]=============================
|                                                                             |
|  Number of variables:        240173                                         |
|  Number of clauses:          316611                                         |
|  Parse time:                   0.13 s                                       |
branch_file: └¦K
|  Simplification time:          0.00 s                                       |
|                                                                             |
===============================================================================
Solved by simplification
restarts              : 0
conflicts             : 0              (0 /sec)
decisions             : 0              (-nan % random) (0 /sec)
propagations          : 219069         (1637006 /sec)
conflict literals     : 0              (-nan % deleted)
Memory used           : 63.05 MB
CPU time              : 0.133823 s

UNSATISFIABLE
